p cnf 7230 17
-4112 -4140 -4738 5214 0
4112 -5215 0
4140 -5215 0
5218 5219 0
4756 -5219 0
-4756 -5218 0
5216 5217 0
4754 -5217 0
-4754 -5216 0
-5214 5215 0
4738 -5215 0
2360 4828 4830 4832 4834 5221 0
-4834 -5221 0
-4832 -5221 0
-4830 -5221 0
-4828 -5221 0
-2360 -5221 0
